r = [
0,5,9,13,5,13,9,13,12,2,5,0
];
p = [
0,1,18,7,11,18,10,18,27,15,23,0
];
e = [
0,17,9,6,16,11,13,19,1,19,20,0
];
d = [
0,134,148,149,141,153,147,150,144,131,140,155
];
d_bar = [
0,135,150,150,142,155,148,152,147,133,142,155
];
w = [
0,17,4.5,6,16,5.5,13,9.5,0.333333333,9.5,10,0
];
